1 92
5 25
29 77
77 4
11 13
96 12
51 37
91 3
81 18
24 165
79 39
16 172
25 125
36 37
73 37
15 58
15 128
5 153
4 132
21 137
9 182
38 65
47 77
94 42
33 38
20 18
6 170
14 86
26 106
25 22
15 61
58 49
16 134
11 162
8 99
1 86
28 116
26 27
15 118
76 25
98 42
47 96
46 56
91 31
21 38
10 84
83 61
60 1
3 185
47 117
34 170
93 39
17 97
21 107
4 181
95 3
88 26
19 174
7 17
19 137
28 140
45 100
26 7
27 13
16 39
62 54
28 87
14 170
38 1
38 134
26 173
33 58
3 166
36 100
4 77
58 51
1 30
17 35
43 53
12 60
3 108
20 55
4 40
22 166
5 149
100 56
31 88
14 108
2 145
31 55
14 33
58 98
6 128
6 152
26 32
21 82
55 22
3 85
55 11
48 27
